
--- Job M-R_definitivo.gms Start 04/16/23 11:15:13 41.2.0 5110e5ff WEX-WEI x86 64bit/MS Windows
--- Applying:
    D:\GAMS\41\gmsprmNT.txt
--- GAMS Parameters defined
    Input "G:\Mi unidad\5. TFG\src\gams\M-R_definitivo.gms"
    PageSize 0
    ScrDir "G:\Mi unidad\5. TFG\src\gams\225a\"
    SysDir D:\GAMS\41\
    LogOption 3
    ErrMsg 1
    ErrorLog 99
    IDE 1
    LstTitleLeftAligned 1
Licensee: GAMS Demo license for Antonio Sevilla Sastre   G221121|0002CO-GEN
          UCM, Spain                                               DL079880
          C:\Users\Antonio\Documents\GAMS\gamslice.txt
          antsev01@ucm.es, Antonio Sevilla Sastre                          
          Demo license for demonstration and instructional purposes only
Processor information: 1 socket(s), 14 core(s), and 20 thread(s) available
GAMS 41.2.0   Copyright (C) 1987-2022 GAMS Development. All rights reserved
--- Starting compilation
--- M-R_definitivo.gms(249) 3 Mb
--- Starting execution: elapsed 0:00:00.031
--- M-R_definitivo.gms(118) 4 Mb
--- Generating MIP model modelo1
--- M-R_definitivo.gms(246) 4 Mb
---   1,324 rows  781 columns  4,639 non-zeroes
---   769 discrete-columns
--- Range statistics (absolute non-zero finite values)
--- RHS       [min, max] : [ 1.000E+00, 2.000E+02] - Zero values observed as well
--- Bound     [min, max] : [ 1.000E+00, 1.000E+00] - Zero values observed as well
--- Matrix    [min, max] : [ 2.000E-01, 9.990E+02]
--- Executing CPLEX (Solvelink=2): elapsed 0:00:00.151

IBM ILOG CPLEX   41.2.0 5110e5ff Nov 14, 2022          WEI x86 64bit/MS Window

--- *** This solver runs with a demo license. No commercial use.
--- GMO setup time: 0.00s
--- Space for names approximately 0.05 Mb
--- Use option 'names no' to turn use of names off
--- GMO memory 0.74 Mb (peak 0.75 Mb)
--- Dictionary memory 0.00 Mb
--- Cplex 22.1.0.0 link memory 0.03 Mb (peak 0.15 Mb)
--- Starting Cplex

Version identifier: 22.1.0.0 | 2022-03-09 | 1a383f8ce
CPXPARAM_Advance                                 0
CPXPARAM_Threads                                 1
CPXPARAM_MIP_Display                             4
CPXPARAM_MIP_Pool_Capacity                       0
CPXPARAM_MIP_Tolerances_AbsMIPGap                0
Generic callback                                 0x50
Found incumbent of value 11.000000 after 0.02 sec. (0.02 ticks)
Tried aggregator 2 times.
MIP Presolve eliminated 1167 rows and 635 columns.
MIP Presolve modified 68 coefficients.
Aggregator did 18 substitutions.
Reduced MIP has 138 rows, 128 columns, and 452 nonzeros.
Reduced MIP has 126 binaries, 2 generals, 0 SOSs, and 0 indicators.
Presolve time = 0.00 sec. (1.72 ticks)
Probing changed sense of 18 constraints.
Probing time = 0.00 sec. (0.16 ticks)
Tried aggregator 2 times.
MIP Presolve eliminated 18 rows and 9 columns.
MIP Presolve modified 18 coefficients.
Aggregator did 9 substitutions.
Reduced MIP has 111 rows, 110 columns, and 380 nonzeros.
Reduced MIP has 108 binaries, 2 generals, 0 SOSs, and 0 indicators.
Presolve time = 0.00 sec. (0.56 ticks)
Probing changed sense of 9 constraints.
Probing time = 0.00 sec. (0.13 ticks)
Tried aggregator 1 time.
Detecting symmetries...
MIP Presolve eliminated 3 rows and 3 columns.
MIP Presolve added 3 rows and 3 columns.
Reduced MIP has 111 rows, 110 columns, and 377 nonzeros.
Reduced MIP has 105 binaries, 5 generals, 0 SOSs, and 0 indicators.
Presolve time = 0.00 sec. (0.44 ticks)
Probing fixed 0 vars, tightened 3 bounds.
Probing time = 0.00 sec. (0.13 ticks)
Clique table members: 275.
MIP emphasis: balance optimality and feasibility.
MIP search method: dynamic search.
Parallel mode: none, using 1 thread.
Tried aggregator 1 time.
LP Presolve eliminated 3 rows and 3 columns.
Aggregator did 6 substitutions.
Reduced LP has 102 rows, 101 columns, and 347 nonzeros.
Presolve time = 0.00 sec. (0.08 ticks)
Initializing dual steep norms . . .

Iteration log . . .
Iteration:     1   Dual objective     =             0.000000
Initializing dual steep norms . . .
Root relaxation solution time = 0.00 sec. (0.25 ticks)

        Nodes                                         Cuts/
   Node  Left     Objective  IInf  Best Integer    Best Bound    ItCnt     Gap

*     0+    0                           11.0000        0.0000           100.00%
Found incumbent of value 11.000000 after 0.02 sec. (3.83 ticks)
      0     0        0.0000     7       11.0000        0.0000       19  100.00%
*     0+    0                            1.0000        0.0000           100.00%
Found incumbent of value 1.000000 after 0.02 sec. (3.95 ticks)
      0     0        0.0000     5        1.0000       Cuts: 9       28  100.00%
*     0     0      integral     0        0.0000       Cuts: 5       31    0.00%
Found incumbent of value 0.000000 after 0.02 sec. (4.59 ticks)
      0     0        cutoff              0.0000        0.0000       31    0.00%
Elapsed time = 0.02 sec. (4.59 ticks, tree = 0.01 MB)

Clique cuts applied:  2
Cover cuts applied:  1
Flow cuts applied:  1
Mixed integer rounding cuts applied:  4
Zero-half cuts applied:  3
Gomory fractional cuts applied:  3

Root node processing (before b&c):
  Real time             =    0.02 sec. (4.60 ticks)
Sequential b&c:
  Real time             =    0.00 sec. (0.00 ticks)
                          ------------
Total (root+branch&cut) =    0.02 sec. (4.60 ticks)

--- MIP status (101): integer optimal solution.
--- Cplex Time: 0.02sec (det. 4.60 ticks)

--- Fixing integer variables and solving final LP...

Version identifier: 22.1.0.0 | 2022-03-09 | 1a383f8ce
CPXPARAM_Advance                                 2
CPXPARAM_Threads                                 1
CPXPARAM_MIP_Display                             4
CPXPARAM_MIP_Pool_Capacity                       0
CPXPARAM_MIP_Tolerances_AbsMIPGap                0
Tried aggregator 1 time.
LP Presolve eliminated 1323 rows and 781 columns.
All rows and columns eliminated.
Presolve time = 0.00 sec. (0.55 ticks)

--- Fixed MIP status (1): optimal.
--- Cplex Time: 0.00sec (det. 1.01 ticks)


Proven optimal solution
MIP Solution:            0.000000    (31 iterations, 0 nodes)
Final Solve:             0.000000    (0 iterations)

Best possible:           0.000000
Absolute gap:            0.000000
Relative gap:            0.000000

--- Reading solution for model modelo1
*** Status: Normal completion
--- Job M-R_definitivo.gms Stop 04/16/23 11:15:13 elapsed 0:00:00.260
